# Solution for model GasLib-40
# Objective value = 1.0531823243638559e+01
loadshed[innode_1] 0
loadshed[innode_2] 0
loadshed[innode_3] 0
loadshed[innode_4] 0
loadshed[innode_5] 0
loadshed[innode_6] 0
loadshed[innode_7] 0
loadshed[innode_8] 0
loadshed[source_1] -2.1707773356134452e-01
loadshed[source_2] -4.6579378625756451e-02
loadshed[source_3] 3.3027615664494836e-01
loadshed[sink_1] 0
loadshed[sink_2] 0
loadshed[sink_3] 0
loadshed[sink_4] 0
loadshed[sink_5] 0
loadshed[sink_6] 0
loadshed[sink_7] 0
loadshed[sink_8] 0
loadshed[sink_9] 0
loadshed[sink_10] 0
loadshed[sink_11] 0
loadshed[sink_12] 6.4398409642630672e-01
loadshed[sink_13] 0
loadshed[sink_14] 0
loadshed[sink_15] 0
loadshed[sink_16] 0
loadshed[sink_17] 0
loadshed[sink_18] 0
loadshed[sink_19] 0
loadshed[sink_20] 0
loadshed[sink_21] 0
loadshed[sink_22] 0
loadshed[sink_23] 0
loadshed[sink_24] 0
loadshed[sink_25] 0
loadshed[sink_26] 0
loadshed[sink_27] 0
loadshed[sink_28] 0
loadshed[sink_29] 0
flow[source_1,sink_3] 1.9240815697586117e+02
flow[innode_1,sink_16] 1.6354166666666970e+01
flow[innode_6,sink_13] 8.6023382362663057e+00
flow[sink_13,sink_14] -7.7518284304003622e+00
flow[sink_14,sink_10] -2.4105995097067080e+01
flow[sink_25,sink_26] 1.7639887102039637e+02
flow[sink_26,sink_9] 1.2404010375500579e+02
flow[sink_9,sink_18] 1.0768593708833912e+02
flow[sink_26,sink_4] 3.6004600598723933e+01
flow[sink_4,sink_20] -4.2027639069300676e+01
flow[sink_18,sink_6] 9.1331770421672445e+01
flow[sink_25,innode_8] -1.5969982364252482e+02
flow[sink_6,sink_7] 4.2269270421671990e+01
flow[sink_6,sink_22] 3.2708333333333641e+01
flow[sink_7,sink_24] 3.8530676756361444e+01
flow[sink_22,sink_1] 1.6354166666666970e+01
flow[sink_24,sink_21] 2.2176510089694776e+01
flow[sink_21,sink_12] 5.8223434230281095e+00
flow[sink_7,sink_5] -1.2615573001356083e+01
flow[sink_5,sink_17] -2.8969739668022839e+01
flow[sink_17,sink_4] -6.1678073001357916e+01
flow[sink_17,sink_8] 1.6354166666668334e+01
flow[sink_3,sink_23] 16.3541666666697
flow[sink_8,sink_20] 0
flow[sink_25,sink_20] 5.8381805735967276e+01
flow[sink_25,sink_15] -1.0003735801677203e+02
flow[sink_15,sink_29] -6.4646908436113236e+01
flow[sink_29,sink_28] 1.6354166666667879e+01
flow[sink_29,sink_2] 6.8098782913992125e+01
flow[sink_2,sink_15] 5.1744616247325460e+01
flow[sink_29,innode_7] -1.6545402468343991e+02
flow[innode_4,sink_19] 4.0489473670017446e+01
flow[sink_19,innode_3] 7.3168495097067463e+01
flow[innode_4,innode_5] 6.5387354760383587e+01
flow[sink_27,innode_5] -6.5387354760383587e+01
flow[sink_27,sink_19] 4.9033188093716923e+01
flow[sink_10,sink_11] 3.2708333333333641e+01
flow[sink_10,innode_2] 0
flow[sink_10,innode_3] -7.3168495097067463e+01
flow[innode_6,sink_25] -8.6023382362663057e+00
flow[sink_11,innode_1] 1.6354166666666970e+01
flow[sink_19,innode_2] 0
flow[source_3,innode_4] 1.0587682843040103e+02
flow[source_2,innode_7] 1.6545402468343991e+02
flow[sink_3,innode_8] 1.5969982364252482e+02
pressure[innode_1] 7.5163698263405450e+01
pressure[innode_2] 7.9372918253860675e+01
pressure[innode_3] 7.9210894906901473e+01
pressure[innode_4] 81.01325
pressure[innode_5] 8.0968273129509910e+01
pressure[innode_6] 7.4208770547080590e+01
pressure[innode_7] 81.01325
pressure[innode_8] 8.0370103033809841e+01
pressure[source_1] 81.01325
pressure[source_2] 81.01325
pressure[source_3] 81.01325
pressure[sink_1] 4.5924675331783796e+01
pressure[sink_2] 7.4862983979765630e+01
pressure[sink_3] 8.0370103033809841e+01
pressure[sink_4] 5.7207383550238148e+01
pressure[sink_5] 5.2692214771310340e+01
pressure[sink_6] 4.8025752942171167e+01
pressure[sink_7] 4.7445496613972942e+01
pressure[sink_8] 5.4233165781871683e+01
pressure[sink_9] 5.4360981305994017e+01
pressure[sink_10] 75.315399571009
pressure[sink_11] 7.5163698263405450e+01
pressure[sink_12] 1.0132499999999998e+00
pressure[sink_13] 7.4161347293968319e+01
pressure[sink_14] 74.1752198512543
pressure[sink_15] 7.4694049212047844e+01
pressure[sink_16] 7.4142048428587771e+01
pressure[sink_17] 5.4850250977285306e+01
pressure[sink_18] 5.0464583142846564e+01
pressure[sink_19] 7.9372918253860675e+01
pressure[sink_20] 6.0290726570218332e+01
pressure[sink_21] 3.0851584480101861e+00
pressure[sink_22] 46.9884444741388
pressure[sink_23] 8.0205385022150040e+01
pressure[sink_24] 3.3307426928183492e+00
pressure[sink_25] 7.4208770547080590e+01
pressure[sink_26] 6.1785101654426157e+01
pressure[sink_27] 8.0425678907838972e+01
pressure[sink_28] 7.6292720731497823e+01
pressure[sink_29] 76.588003005115
interdiction[source_1,sink_3] 0
interdiction[innode_1,sink_16] 0
interdiction[innode_6,sink_13] 0
interdiction[sink_13,sink_14] 0
interdiction[sink_14,sink_10] 0
interdiction[sink_25,sink_26] 0
interdiction[sink_26,sink_9] 0
interdiction[sink_9,sink_18] 0
interdiction[sink_26,sink_4] 0
interdiction[sink_4,sink_20] 0
interdiction[sink_18,sink_6] 0
interdiction[sink_25,innode_8] 0
interdiction[sink_6,sink_7] 0
interdiction[sink_6,sink_22] 0
interdiction[sink_7,sink_24] 0
interdiction[sink_22,sink_1] 0
interdiction[sink_24,sink_21] 0
interdiction[sink_21,sink_12] 0
interdiction[sink_7,sink_5] 0
interdiction[sink_5,sink_17] 0
interdiction[sink_17,sink_4] 0
interdiction[sink_17,sink_8] 0
interdiction[sink_3,sink_23] 0
interdiction[sink_8,sink_20] 1
interdiction[sink_25,sink_20] 0
interdiction[sink_25,sink_15] 0
interdiction[sink_15,sink_29] 0
interdiction[sink_29,sink_28] 0
interdiction[sink_29,sink_2] 0
interdiction[sink_2,sink_15] 0
interdiction[sink_29,innode_7] 0
interdiction[innode_4,sink_19] 0
interdiction[sink_19,innode_3] 0
interdiction[innode_4,innode_5] 0
interdiction[sink_27,innode_5] 0
interdiction[sink_27,sink_19] 0
interdiction[sink_10,sink_11] 0
interdiction[sink_10,innode_2] 1
interdiction[sink_10,innode_3] 0
interdiction[innode_6,sink_25] 0
interdiction[sink_11,innode_1] 0
interdiction[sink_19,innode_2] 0
interdiction[source_3,innode_4] 0
interdiction[source_2,innode_7] 0
interdiction[sink_3,innode_8] 0
WCcheckFlow[source_1,sink_3] 39
WCcheckFlow[innode_1,sink_16] 1
WCcheckFlow[innode_6,sink_13] 13
WCcheckFlow[sink_13,sink_14] 12
WCcheckFlow[sink_14,sink_10] 11
WCcheckFlow[sink_25,sink_26] 15
WCcheckFlow[sink_26,sink_9] 12
WCcheckFlow[sink_9,sink_18] 11
WCcheckFlow[sink_26,sink_4] 2
WCcheckFlow[sink_4,sink_20] 1
WCcheckFlow[sink_18,sink_6] 10
WCcheckFlow[sink_25,innode_8] -36
WCcheckFlow[sink_6,sink_7] 7
WCcheckFlow[sink_6,sink_22] 2
WCcheckFlow[sink_7,sink_24] 3
WCcheckFlow[sink_22,sink_1] 1
WCcheckFlow[sink_24,sink_21] 2
WCcheckFlow[sink_21,sink_12] 1
WCcheckFlow[sink_7,sink_5] 3
WCcheckFlow[sink_5,sink_17] 2
WCcheckFlow[sink_17,sink_4] 0
WCcheckFlow[sink_17,sink_8] 1
WCcheckFlow[sink_3,sink_23] 1
WCcheckFlow[sink_8,sink_20] 0
WCcheckFlow[sink_25,sink_20] 0
WCcheckFlow[sink_25,sink_15] 6
WCcheckFlow[sink_15,sink_29] 5
WCcheckFlow[sink_29,sink_28] 1
WCcheckFlow[sink_29,sink_2] 1
WCcheckFlow[sink_2,sink_15] 0
WCcheckFlow[sink_29,innode_7] 2
WCcheckFlow[innode_4,sink_19] -4
WCcheckFlow[sink_19,innode_3] -6
WCcheckFlow[innode_4,innode_5] 2
WCcheckFlow[sink_27,innode_5] -1
WCcheckFlow[sink_27,sink_19] 0
WCcheckFlow[sink_10,sink_11] 3
WCcheckFlow[sink_10,innode_2] 0
WCcheckFlow[sink_10,innode_3] 7
WCcheckFlow[innode_6,sink_25] -14
WCcheckFlow[sink_11,innode_1] 2
WCcheckFlow[sink_19,innode_2] 1
WCcheckFlow[source_3,innode_4] -1
WCcheckFlow[source_2,innode_7] -1
WCcheckFlow[sink_3,innode_8] 37
